c 1 _r
c 2 _r_1
c 3 _r_1_7_8
c 4 _r_1_7_8_10_11
c 5 _r_1_7_8_10_12
c 6 _r_1_7_8_10_13
c 7 _r_1_7_9
c 8 _r_1_7_9_15_16
c 9 _r_1_7_9_15_17
c 10 _r_1_7_9_15_17_18_19
c 11 _r_1_7_9_15_17_18_20
c 12 _r_2
c 13 _r_2_21_22
c 14 _r_2_21_22_27_28
c 15 _r_2_21_22_27_29
c 16 _r_2_21_22_27_30
c 17 _r_2_21_22_27_31
c 18 _r_2_21_22_27_32
c 19 _r_2_21_22_27_33
c 20 _r_2_21_22_27_34
c 21 _r_2_21_22_27_35
c 22 _r_2_21_23
c 23 _r_2_21_23_36_37
c 24 _r_2_21_23_36_38
c 25 _r_2_21_23_36_39
c 26 _r_2_21_23_36_40
c 27 _r_2_21_23_36_41
c 28 _r_2_21_23_36_42
c 29 _r_2_21_23_36_43
c 30 _r_2_21_23_36_44
c 31 _r_2_21_24
c 32 _r_2_21_24_45_46
c 33 _r_2_21_24_45_47
c 34 _r_2_21_25
c 35 _r_2_21_25_48_49
c 36 _r_2_21_25_48_50
c 37 _r_2_21_25_48_51
c 38 _r_2_21_25_48_52
c 39 _r_2_21_25_48_53
c 40 _r_2_21_25_48_54
c 41 _r_2_21_25_48_55
c 42 _r_2_21_25_48_56
c 43 _r_2_21_25_48_57
c 44 _r_2_21_26
c 45 _r_2_21_26_58_59
c 46 _r_2_21_26_58_60
c 47 _r_2_21_26_58_61
c 48 _r_2_21_26_58_62
c 49 _r_2_21_26_58_63
c 50 _r_2_21_26_58_64
c 51 _r_3
c 52 _r_3_78_79
c 53 _r_3_78_80
c 54 _r_3_78_80_81
c 55 _r_3_78_80_81_82_83
c 56 _r_3_78_80_81_82_83_85_86
c 57 _r_3_78_80_81_82_83_85_87
c 58 _r_3_78_80_81_82_83_85_88
c 59 _r_3_78_80_81_82_84
c 60 _r_3_78_80_81_82_84_89_90
c 61 _r_3_78_80_81_82_84_89_91
c 62 _r_3_78_80_81_82_84_89_92
c 63 _r_4
c 64 _r_4_65_66
c 65 _r_4_65_66_70_71
c 66 _r_4_65_66_70_72
c 67 _r_4_65_66_70_73
c 68 _r_4_65_67
c 69 _r_4_65_68
c 70 _r_4_65_68_74_75
c 71 _r_4_65_68_74_76
c 72 _r_4_65_68_74_77
c 73 _r_4_65_69
c 74 _r_5
c 75 _r_5_93_94
c 76 _r_5_93_95
c 77 _r_6
c 78 _r_6_96_97
c 79 _r_6_96_98
p cnf 79 250
1 0
-2 1 0
-1 2 0
-12 1 0
-1 12 0
-51 1 0
-1 51 0
-63 1 0
-1 63 0
-74 1 0
-1 74 0
-77 1 0
-3 2 0
-7 2 0
-2 3 7 0
-3 -7 0
-13 12 0
-22 12 0
-31 12 0
-34 12 0
-44 12 0
-12 13 22 31 34 44 0
-13 -22 0
-13 -31 0
-13 -34 0
-13 -44 0
-22 -31 0
-22 -34 0
-22 -44 0
-31 -34 0
-31 -44 0
-34 -44 0
-52 51 0
-53 51 0
-51 52 53 0
-52 -53 0
-64 63 0
-68 63 0
-69 63 0
-73 63 0
-63 64 68 69 73 0
-64 -68 0
-64 -69 0
-64 -73 0
-68 -69 0
-68 -73 0
-69 -73 0
-75 74 0
-76 74 0
-74 75 76 0
-75 -76 0
-78 77 0
-79 77 0
-77 78 79 0
-78 -79 0
-4 3 0
-5 3 0
-6 3 0
-3 4 5 6 0
-4 -5 0
-4 -6 0
-5 -6 0
-8 7 0
-9 7 0
-7 8 9 0
-8 -9 0
-14 13 0
-15 13 0
-16 13 0
-17 13 0
-18 13 0
-19 13 0
-20 13 0
-21 13 0
-13 14 15 16 17 18 19 20 21 0
-14 -15 0
-14 -16 0
-14 -17 0
-14 -18 0
-14 -19 0
-14 -20 0
-14 -21 0
-15 -16 0
-15 -17 0
-15 -18 0
-15 -19 0
-15 -20 0
-15 -21 0
-16 -17 0
-16 -18 0
-16 -19 0
-16 -20 0
-16 -21 0
-17 -18 0
-17 -19 0
-17 -20 0
-17 -21 0
-18 -19 0
-18 -20 0
-18 -21 0
-19 -20 0
-19 -21 0
-20 -21 0
-23 22 0
-24 22 0
-25 22 0
-26 22 0
-27 22 0
-28 22 0
-29 22 0
-30 22 0
-22 23 24 25 26 27 28 29 30 0
-23 -24 0
-23 -25 0
-23 -26 0
-23 -27 0
-23 -28 0
-23 -29 0
-23 -30 0
-24 -25 0
-24 -26 0
-24 -27 0
-24 -28 0
-24 -29 0
-24 -30 0
-25 -26 0
-25 -27 0
-25 -28 0
-25 -29 0
-25 -30 0
-26 -27 0
-26 -28 0
-26 -29 0
-26 -30 0
-27 -28 0
-27 -29 0
-27 -30 0
-28 -29 0
-28 -30 0
-29 -30 0
-32 31 0
-33 31 0
-31 32 33 0
-32 -33 0
-35 34 0
-36 34 0
-37 34 0
-38 34 0
-39 34 0
-40 34 0
-41 34 0
-42 34 0
-43 34 0
-34 35 36 37 38 39 40 41 42 43 0
-35 -36 0
-35 -37 0
-35 -38 0
-35 -39 0
-35 -40 0
-35 -41 0
-35 -42 0
-35 -43 0
-36 -37 0
-36 -38 0
-36 -39 0
-36 -40 0
-36 -41 0
-36 -42 0
-36 -43 0
-37 -38 0
-37 -39 0
-37 -40 0
-37 -41 0
-37 -42 0
-37 -43 0
-38 -39 0
-38 -40 0
-38 -41 0
-38 -42 0
-38 -43 0
-39 -40 0
-39 -41 0
-39 -42 0
-39 -43 0
-40 -41 0
-40 -42 0
-40 -43 0
-41 -42 0
-41 -43 0
-42 -43 0
-45 44 0
-46 44 0
-47 44 0
-48 44 0
-49 44 0
-50 44 0
-44 45 46 47 48 49 50 0
-45 -46 0
-45 -47 0
-45 -48 0
-45 -49 0
-45 -50 0
-46 -47 0
-46 -48 0
-46 -49 0
-46 -50 0
-47 -48 0
-47 -49 0
-47 -50 0
-48 -49 0
-48 -50 0
-49 -50 0
-54 53 0
-53 54 0
-65 64 0
-66 64 0
-67 64 0
-64 65 66 67 0
-65 -66 0
-65 -67 0
-66 -67 0
-70 69 0
-71 69 0
-72 69 0
-69 70 71 72 0
-70 -71 0
-70 -72 0
-71 -72 0
-10 9 0
-11 9 0
-9 10 11 0
-10 -11 0
-55 54 0
-59 54 0
-54 55 59 0
-55 -59 0
-56 55 0
-57 55 0
-58 55 0
-55 56 57 58 0
-56 -57 0
-56 -58 0
-57 -58 0
-60 59 0
-61 59 0
-62 59 0
-59 60 61 62 0
-60 -61 0
-60 -62 0
-61 -62 0
